p cnf 225 2574
1 2 3 4 5 0
6 7 8 9 10 0
11 12 13 14 15 0
16 17 18 19 20 0
21 22 23 24 25 0
26 27 28 29 30 0
31 32 33 34 35 0
36 37 38 39 40 0
41 42 43 44 45 0
46 47 48 49 50 0
51 52 53 54 55 0
56 57 58 59 60 0
61 62 63 64 65 0
66 67 68 69 70 0
71 72 73 74 75 0
76 77 78 79 80 0
81 82 83 84 85 0
86 87 88 89 90 0
91 92 93 94 95 0
96 97 98 99 100 0
101 102 103 104 105 0
106 107 108 109 110 0
111 112 113 114 115 0
116 117 118 119 120 0
121 122 123 124 125 0
126 127 128 129 130 0
131 132 133 134 135 0
136 137 138 139 140 0
141 142 143 144 145 0
146 147 148 149 150 0
151 152 153 154 155 0
156 157 158 159 160 0
161 162 163 164 165 0
166 167 168 169 170 0
171 172 173 174 175 0
176 177 178 179 180 0
181 182 183 184 185 0
186 187 188 189 190 0
191 192 193 194 195 0
196 197 198 199 200 0
201 202 203 204 205 0
206 207 208 209 210 0
211 212 213 214 215 0
216 217 218 219 220 0
221 222 223 224 225 0
-1 -2 0
-1 -3 0
-1 -4 0
-1 -5 0
-2 -3 0
-2 -4 0
-2 -5 0
-3 -4 0
-3 -5 0
-4 -5 0
-6 -7 0
-6 -8 0
-6 -9 0
-6 -10 0
-7 -8 0
-7 -9 0
-7 -10 0
-8 -9 0
-8 -10 0
-9 -10 0
-11 -12 0
-11 -13 0
-11 -14 0
-11 -15 0
-12 -13 0
-12 -14 0
-12 -15 0
-13 -14 0
-13 -15 0
-14 -15 0
-16 -17 0
-16 -18 0
-16 -19 0
-16 -20 0
-17 -18 0
-17 -19 0
-17 -20 0
-18 -19 0
-18 -20 0
-19 -20 0
-21 -22 0
-21 -23 0
-21 -24 0
-21 -25 0
-22 -23 0
-22 -24 0
-22 -25 0
-23 -24 0
-23 -25 0
-24 -25 0
-26 -27 0
-26 -28 0
-26 -29 0
-26 -30 0
-27 -28 0
-27 -29 0
-27 -30 0
-28 -29 0
-28 -30 0
-29 -30 0
-31 -32 0
-31 -33 0
-31 -34 0
-31 -35 0
-32 -33 0
-32 -34 0
-32 -35 0
-33 -34 0
-33 -35 0
-34 -35 0
-36 -37 0
-36 -38 0
-36 -39 0
-36 -40 0
-37 -38 0
-37 -39 0
-37 -40 0
-38 -39 0
-38 -40 0
-39 -40 0
-41 -42 0
-41 -43 0
-41 -44 0
-41 -45 0
-42 -43 0
-42 -44 0
-42 -45 0
-43 -44 0
-43 -45 0
-44 -45 0
-46 -47 0
-46 -48 0
-46 -49 0
-46 -50 0
-47 -48 0
-47 -49 0
-47 -50 0
-48 -49 0
-48 -50 0
-49 -50 0
-51 -52 0
-51 -53 0
-51 -54 0
-51 -55 0
-52 -53 0
-52 -54 0
-52 -55 0
-53 -54 0
-53 -55 0
-54 -55 0
-56 -57 0
-56 -58 0
-56 -59 0
-56 -60 0
-57 -58 0
-57 -59 0
-57 -60 0
-58 -59 0
-58 -60 0
-59 -60 0
-61 -62 0
-61 -63 0
-61 -64 0
-61 -65 0
-62 -63 0
-62 -64 0
-62 -65 0
-63 -64 0
-63 -65 0
-64 -65 0
-66 -67 0
-66 -68 0
-66 -69 0
-66 -70 0
-67 -68 0
-67 -69 0
-67 -70 0
-68 -69 0
-68 -70 0
-69 -70 0
-71 -72 0
-71 -73 0
-71 -74 0
-71 -75 0
-72 -73 0
-72 -74 0
-72 -75 0
-73 -74 0
-73 -75 0
-74 -75 0
-76 -77 0
-76 -78 0
-76 -79 0
-76 -80 0
-77 -78 0
-77 -79 0
-77 -80 0
-78 -79 0
-78 -80 0
-79 -80 0
-81 -82 0
-81 -83 0
-81 -84 0
-81 -85 0
-82 -83 0
-82 -84 0
-82 -85 0
-83 -84 0
-83 -85 0
-84 -85 0
-86 -87 0
-86 -88 0
-86 -89 0
-86 -90 0
-87 -88 0
-87 -89 0
-87 -90 0
-88 -89 0
-88 -90 0
-89 -90 0
-91 -92 0
-91 -93 0
-91 -94 0
-91 -95 0
-92 -93 0
-92 -94 0
-92 -95 0
-93 -94 0
-93 -95 0
-94 -95 0
-96 -97 0
-96 -98 0
-96 -99 0
-96 -100 0
-97 -98 0
-97 -99 0
-97 -100 0
-98 -99 0
-98 -100 0
-99 -100 0
-101 -102 0
-101 -103 0
-101 -104 0
-101 -105 0
-102 -103 0
-102 -104 0
-102 -105 0
-103 -104 0
-103 -105 0
-104 -105 0
-106 -107 0
-106 -108 0
-106 -109 0
-106 -110 0
-107 -108 0
-107 -109 0
-107 -110 0
-108 -109 0
-108 -110 0
-109 -110 0
-111 -112 0
-111 -113 0
-111 -114 0
-111 -115 0
-112 -113 0
-112 -114 0
-112 -115 0
-113 -114 0
-113 -115 0
-114 -115 0
-116 -117 0
-116 -118 0
-116 -119 0
-116 -120 0
-117 -118 0
-117 -119 0
-117 -120 0
-118 -119 0
-118 -120 0
-119 -120 0
-121 -122 0
-121 -123 0
-121 -124 0
-121 -125 0
-122 -123 0
-122 -124 0
-122 -125 0
-123 -124 0
-123 -125 0
-124 -125 0
-126 -127 0
-126 -128 0
-126 -129 0
-126 -130 0
-127 -128 0
-127 -129 0
-127 -130 0
-128 -129 0
-128 -130 0
-129 -130 0
-131 -132 0
-131 -133 0
-131 -134 0
-131 -135 0
-132 -133 0
-132 -134 0
-132 -135 0
-133 -134 0
-133 -135 0
-134 -135 0
-136 -137 0
-136 -138 0
-136 -139 0
-136 -140 0
-137 -138 0
-137 -139 0
-137 -140 0
-138 -139 0
-138 -140 0
-139 -140 0
-141 -142 0
-141 -143 0
-141 -144 0
-141 -145 0
-142 -143 0
-142 -144 0
-142 -145 0
-143 -144 0
-143 -145 0
-144 -145 0
-146 -147 0
-146 -148 0
-146 -149 0
-146 -150 0
-147 -148 0
-147 -149 0
-147 -150 0
-148 -149 0
-148 -150 0
-149 -150 0
-151 -152 0
-151 -153 0
-151 -154 0
-151 -155 0
-152 -153 0
-152 -154 0
-152 -155 0
-153 -154 0
-153 -155 0
-154 -155 0
-156 -157 0
-156 -158 0
-156 -159 0
-156 -160 0
-157 -158 0
-157 -159 0
-157 -160 0
-158 -159 0
-158 -160 0
-159 -160 0
-161 -162 0
-161 -163 0
-161 -164 0
-161 -165 0
-162 -163 0
-162 -164 0
-162 -165 0
-163 -164 0
-163 -165 0
-164 -165 0
-166 -167 0
-166 -168 0
-166 -169 0
-166 -170 0
-167 -168 0
-167 -169 0
-167 -170 0
-168 -169 0
-168 -170 0
-169 -170 0
-171 -172 0
-171 -173 0
-171 -174 0
-171 -175 0
-172 -173 0
-172 -174 0
-172 -175 0
-173 -174 0
-173 -175 0
-174 -175 0
-176 -177 0
-176 -178 0
-176 -179 0
-176 -180 0
-177 -178 0
-177 -179 0
-177 -180 0
-178 -179 0
-178 -180 0
-179 -180 0
-181 -182 0
-181 -183 0
-181 -184 0
-181 -185 0
-182 -183 0
-182 -184 0
-182 -185 0
-183 -184 0
-183 -185 0
-184 -185 0
-186 -187 0
-186 -188 0
-186 -189 0
-186 -190 0
-187 -188 0
-187 -189 0
-187 -190 0
-188 -189 0
-188 -190 0
-189 -190 0
-191 -192 0
-191 -193 0
-191 -194 0
-191 -195 0
-192 -193 0
-192 -194 0
-192 -195 0
-193 -194 0
-193 -195 0
-194 -195 0
-196 -197 0
-196 -198 0
-196 -199 0
-196 -200 0
-197 -198 0
-197 -199 0
-197 -200 0
-198 -199 0
-198 -200 0
-199 -200 0
-201 -202 0
-201 -203 0
-201 -204 0
-201 -205 0
-202 -203 0
-202 -204 0
-202 -205 0
-203 -204 0
-203 -205 0
-204 -205 0
-206 -207 0
-206 -208 0
-206 -209 0
-206 -210 0
-207 -208 0
-207 -209 0
-207 -210 0
-208 -209 0
-208 -210 0
-209 -210 0
-211 -212 0
-211 -213 0
-211 -214 0
-211 -215 0
-212 -213 0
-212 -214 0
-212 -215 0
-213 -214 0
-213 -215 0
-214 -215 0
-216 -217 0
-216 -218 0
-216 -219 0
-216 -220 0
-217 -218 0
-217 -219 0
-217 -220 0
-218 -219 0
-218 -220 0
-219 -220 0
-221 -222 0
-221 -223 0
-221 -224 0
-221 -225 0
-222 -223 0
-222 -224 0
-222 -225 0
-223 -224 0
-223 -225 0
-224 -225 0
-2 -17 0
-4 -17 0
-2 -16 0
-1 -20 0
-3 -17 0
-5 -17 0
-2 -20 0
-3 -35 0
-2 -33 0
-5 -32 0
-2 -32 0
-1 -34 0
-5 -31 0
-4 -33 0
-3 -47 0
-5 -48 0
-4 -49 0
-4 -48 0
-1 -48 0
-2 -50 0
-2 -49 0
-3 -51 0
-1 -54 0
-4 -52 0
-5 -51 0
-3 -53 0
-3 -54 0
-1 -51 0
-4 -56 0
-2 -60 0
-3 -56 0
-2 -56 0
-5 -56 0
-2 -59 0
-2 -57 0
-4 -70 0
-2 -67 0
-5 -70 0
-4 -68 0
-5 -68 0
-3 -69 0
-5 -69 0
-2 -89 0
-4 -89 0
-2 -88 0
-5 -87 0
-4 -86 0
-3 -87 0
-3 -89 0
-5 -96 0
-3 -100 0
-5 -97 0
-2 -98 0
-3 -96 0
-2 -96 0
-1 -98 0
-1 -104 0
-2 -102 0
-3 -101 0
-1 -103 0
-2 -104 0
-3 -102 0
-5 -103 0
-4 -113 0
-5 -114 0
-2 -113 0
-1 -111 0
-4 -112 0
-2 -115 0
-5 -111 0
-4 -137 0
-1 -137 0
-1 -138 0
-3 -140 0
-1 -140 0
-4 -140 0
-1 -136 0
-1 -150 0
-4 -150 0
-3 -146 0
-2 -146 0
-1 -149 0
-3 -148 0
-2 -148 0
-3 -170 0
-5 -170 0
-1 -169 0
-2 -166 0
-3 -168 0
-1 -166 0
-3 -166 0
-2 -186 0
-5 -190 0
-1 -187 0
-5 -187 0
-4 -188 0
-4 -189 0
-2 -190 0
-5 -202 0
-3 -205 0
-1 -201 0
-2 -203 0
-2 -205 0
-5 -205 0
-3 -201 0
-4 -211 0
-3 -211 0
-1 -212 0
-4 -212 0
-2 -213 0
-1 -215 0
-2 -214 0
-1 -217 0
-5 -216 0
-1 -220 0
-3 -219 0
-4 -218 0
-1 -216 0
-4 -220 0
-10 -39 0
-9 -38 0
-7 -39 0
-6 -39 0
-10 -38 0
-7 -40 0
-9 -40 0
-9 -84 0
-10 -84 0
-6 -81 0
-6 -82 0
-9 -81 0
-10 -81 0
-7 -81 0
-9 -95 0
-10 -91 0
-6 -94 0
-10 -92 0
-6 -92 0
-7 -91 0
-9 -94 0
-8 -98 0
-8 -99 0
-9 -98 0
-8 -100 0
-10 -96 0
-10 -100 0
-9 -96 0
-6 -138 0
-7 -139 0
-10 -139 0
-6 -140 0
-7 -138 0
-10 -138 0
-10 -137 0
-9 -144 0
-7 -141 0
-9 -142 0
-7 -145 0
-10 -145 0
-10 -143 0
-7 -144 0
-6 -158 0
-8 -158 0
-7 -157 0
-8 -157 0
-7 -158 0
-8 -160 0
-7 -156 0
-7 -161 0
-9 -163 0
-6 -164 0
-7 -165 0
-8 -161 0
-8 -164 0
-6 -165 0
-6 -174 0
-10 -175 0
-6 -172 0
-9 -173 0
-10 -171 0
-7 -171 0
-8 -172 0
-9 -176 0
-8 -179 0
-10 -176 0
-6 -179 0
-9 -179 0
-6 -178 0
-8 -177 0
-7 -207 0
-9 -209 0
-10 -207 0
-10 -209 0
-9 -206 0
-6 -208 0
-10 -208 0
-8 -211 0
-10 -212 0
-10 -211 0
-8 -214 0
-8 -215 0
-9 -213 0
-6 -213 0
-8 -223 0
-7 -223 0
-8 -225 0
-10 -225 0
-7 -225 0
-9 -224 0
-9 -223 0
-11 -45 0
-15 -44 0
-12 -42 0
-14 -43 0
-12 -44 0
-12 -45 0
-15 -45 0
-12 -52 0
-15 -52 0
-14 -52 0
-15 -53 0
-13 -52 0
-12 -55 0
-14 -54 0
-15 -91 0
-11 -94 0
-15 -94 0
-11 -92 0
-13 -92 0
-15 -93 0
-11 -93 0
-14 -101 0
-14 -104 0
-13 -101 0
-15 -102 0
-14 -103 0
-15 -103 0
-11 -102 0
-14 -134 0
-13 -133 0
-12 -134 0
-15 -131 0
-13 -135 0
-12 -132 0
-15 -133 0
-15 -140 0
-13 -140 0
-13 -139 0
-13 -138 0
-14 -138 0
-13 -136 0
-14 -136 0
-14 -177 0
-15 -177 0
-14 -180 0
-11 -179 0
-15 -179 0
-13 -178 0
-13 -176 0
-15 -183 0
-15 -184 0
-13 -184 0
-13 -181 0
-13 -183 0
-15 -185 0
-11 -184 0
-11 -206 0
-15 -209 0
-14 -210 0
-15 -208 0
-14 -208 0
-12 -207 0
-12 -210 0
-12 -214 0
-12 -213 0
-14 -212 0
-14 -215 0
-14 -214 0
-11 -211 0
-11 -215 0
-14 -222 0
-11 -224 0
-12 -225 0
-13 -225 0
-12 -224 0
-15 -225 0
-11 -223 0
-20 -29 0
-19 -28 0
-19 -29 0
-20 -27 0
-16 -26 0
-20 -28 0
-18 -29 0
-18 -34 0
-20 -32 0
-18 -32 0
-17 -31 0
-20 -31 0
-19 -34 0
-19 -33 0
-20 -39 0
-20 -40 0
-18 -40 0
-16 -36 0
-17 -39 0
-19 -39 0
-17 -40 0
-19 -48 0
-17 -47 0
-18 -46 0
-16 -46 0
-18 -50 0
-17 -50 0
-19 -47 0
-18 -55 0
-17 -52 0
-19 -53 0
-20 -54 0
-18 -53 0
-16 -51 0
-19 -51 0
-20 -79 0
-16 -79 0
-17 -78 0
-16 -80 0
-16 -76 0
-20 -80 0
-18 -80 0
-17 -90 0
-16 -87 0
-17 -86 0
-18 -87 0
-18 -90 0
-19 -88 0
-18 -88 0
-20 -111 0
-19 -115 0
-17 -113 0
-20 -115 0
-18 -114 0
-17 -115 0
-20 -114 0
-16 -128 0
-17 -128 0
-20 -126 0
-16 -129 0
-20 -128 0
-19 -128 0
-16 -130 0
-18 -135 0
-16 -134 0
-17 -131 0
-17 -133 0
-19 -133 0
-16 -135 0
-17 -134 0
-16 -137 0
-17 -138 0
-19 -140 0
-19 -137 0
-16 -138 0
-18 -140 0
-19 -138 0
-16 -147 0
-16 -148 0
-20 -146 0
-20 -149 0
-18 -146 0
-17 -147 0
-17 -146 0
-18 -151 0
-19 -154 0
-20 -155 0
-16 -151 0
-17 -151 0
-20 -152 0
-17 -154 0
-16 -184 0
-17 -182 0
-19 -181 0
-18 -185 0
-20 -183 0
-16 -185 0
-20 -181 0
-18 -195 0
-18 -194 0
-19 -191 0
-18 -193 0
-19 -193 0
-17 -193 0
-20 -194 0
-21 -29 0
-25 -30 0
-23 -27 0
-25 -26 0
-23 -26 0
-24 -27 0
-21 -30 0
-24 -51 0
-24 -55 0
-23 -53 0
-24 -53 0
-25 -51 0
-25 -55 0
-21 -51 0
-24 -60 0
-21 -58 0
-25 -58 0
-21 -59 0
-24 -59 0
-22 -60 0
-22 -59 0
-24 -72 0
-21 -75 0
-25 -74 0
-24 -74 0
-25 -73 0
-23 -72 0
-23 -71 0
-23 -78 0
-25 -80 0
-25 -79 0
-25 -76 0
-24 -79 0
-21 -79 0
-25 -78 0
-23 -120 0
-24 -117 0
-24 -118 0
-23 -117 0
-25 -118 0
-25 -116 0
-23 -119 0
-21 -124 0
-22 -124 0
-23 -122 0
-24 -123 0
-25 -121 0
-23 -124 0
-24 -122 0
-24 -141 0
-21 -141 0
-25 -142 0
-22 -142 0
-21 -142 0
-22 -144 0
-22 -145 0
-23 -147 0
-24 -150 0
-23 -146 0
-22 -146 0
-24 -148 0
-22 -148 0
-22 -149 0
-21 -169 0
-25 -167 0
-22 -166 0
-24 -167 0
-25 -166 0
-23 -168 0
-22 -168 0
-23 -171 0
-24 -174 0
-21 -173 0
-23 -172 0
-22 -171 0
-22 -175 0
-22 -174 0
-26 -33 0
-27 -31 0
-27 -34 0
-29 -32 0
-29 -34 0
-29 -31 0
-30 -35 0
-26 -65 0
-30 -64 0
-26 -61 0
-29 -65 0
-26 -64 0
-28 -65 0
-28 -61 0
-26 -84 0
-30 -84 0
-28 -84 0
-29 -82 0
-27 -82 0
-27 -84 0
-28 -83 0
-26 -123 0
-30 -122 0
-28 -123 0
-27 -121 0
-28 -121 0
-30 -121 0
-28 -122 0
-27 -129 0
-27 -127 0
-26 -129 0
-30 -128 0
-29 -126 0
-29 -128 0
-29 -129 0
-26 -154 0
-28 -155 0
-30 -152 0
-29 -153 0
-29 -151 0
-27 -155 0
-30 -154 0
-30 -182 0
-29 -181 0
-26 -185 0
-26 -182 0
-27 -183 0
-28 -184 0
-27 -182 0
-26 -196 0
-27 -197 0
-26 -199 0
-26 -197 0
-29 -200 0
-28 -199 0
-29 -197 0
-27 -202 0
-27 -205 0
-28 -205 0
-30 -204 0
-26 -201 0
-29 -202 0
-26 -204 0
-35 -42 0
-35 -44 0
-35 -45 0
-35 -41 0
-34 -43 0
-33 -45 0
-32 -45 0
-34 -48 0
-31 -49 0
-35 -48 0
-34 -47 0
-32 -49 0
-32 -50 0
-32 -48 0
-34 -74 0
-35 -72 0
-33 -75 0
-32 -71 0
-35 -75 0
-31 -72 0
-34 -71 0
-34 -86 0
-35 -86 0
-31 -90 0
-35 -89 0
-34 -90 0
-34 -87 0
-33 -87 0
-33 -91 0
-31 -93 0
-32 -92 0
-33 -93 0
-31 -91 0
-33 -95 0
-35 -92 0
-32 -97 0
-31 -98 0
-31 -100 0
-33 -99 0
-35 -99 0
-32 -96 0
-32 -100 0
-35 -122 0
-35 -121 0
-35 -125 0
-34 -123 0
-35 -123 0
-33 -123 0
-31 -125 0
-34 -137 0
-31 -140 0
-34 -139 0
-32 -138 0
-35 -140 0
-31 -136 0
-32 -137 0
-34 -183 0
-34 -181 0
-31 -185 0
-35 -185 0
-34 -182 0
-31 -182 0
-33 -182 0
-33 -189 0
-34 -187 0
-31 -186 0
-35 -190 0
-31 -190 0
-33 -186 0
-34 -186 0
-35 -207 0
-33 -210 0
-31 -208 0
-33 -209 0
-33 -207 0
-34 -207 0
-32 -206 0
-40 -55 0
-40 -52 0
-39 -55 0
-40 -53 0
-37 -52 0
-39 -51 0
-36 -51 0
-38 -58 0
-36 -59 0
-40 -59 0
-40 -58 0
-38 -57 0
-39 -60 0
-40 -57 0
-36 -62 0
-40 -61 0
-36 -65 0
-37 -61 0
-39 -63 0
-39 -62 0
-36 -63 0
-39 -66 0
-37 -67 0
-37 -70 0
-37 -69 0
-39 -69 0
-38 -67 0
-40 -66 0
-38 -94 0
-37 -93 0
-36 -94 0
-36 -92 0
-37 -92 0
-37 -94 0
-40 -94 0
-36 -133 0
-37 -131 0
-36 -135 0
-38 -135 0
-40 -135 0
-36 -132 0
-36 -134 0
-38 -136 0
-39 -140 0
-37 -139 0
-38 -139 0
-39 -137 0
-37 -136 0
-37 -138 0
-37 -159 0
-38 -160 0
-40 -157 0
-40 -159 0
-40 -156 0
-39 -160 0
-37 -156 0
-39 -179 0
-39 -178 0
-39 -176 0
-37 -178 0
-38 -180 0
-39 -180 0
-37 -179 0
-40 -184 0
-40 -185 0
-39 -182 0
-36 -182 0
-37 -183 0
-39 -184 0
-38 -185 0
-39 -196 0
-36 -197 0
-40 -199 0
-40 -196 0
-38 -199 0
-37 -198 0
-37 -199 0
-40 -203 0
-39 -204 0
-38 -203 0
-37 -203 0
-36 -201 0
-36 -204 0
-38 -201 0
-36 -224 0
-39 -224 0
-36 -222 0
-38 -225 0
-39 -222 0
-40 -221 0
-40 -222 0
-45 -47 0
-43 -47 0
-41 -48 0
-41 -50 0
-44 -48 0
-43 -46 0
-42 -49 0
-42 -78 0
-45 -78 0
-44 -76 0
-41 -79 0
-45 -76 0
-44 -79 0
-44 -77 0
-43 -93 0
-42 -93 0
-41 -94 0
-42 -92 0
-44 -93 0
-42 -94 0
-41 -92 0
-45 -105 0
-43 -105 0
-41 -102 0
-45 -101 0
-45 -102 0
-41 -101 0
-41 -105 0
-44 -122 0
-42 -122 0
-42 -123 0
-44 -123 0
-41 -121 0
-43 -122 0
-43 -124 0
-41 -175 0
-43 -173 0
-45 -175 0
-41 -172 0
-42 -173 0
-42 -174 0
-42 -172 0
-42 -178 0
-43 -179 0
-44 -179 0
-42 -177 0
-42 -176 0
-45 -178 0
-44 -176 0
-45 -190 0
-45 -186 0
-42 -188 0
-43 -190 0
-41 -186 0
-42 -190 0
-42 -187 0
-44 -192 0
-42 -191 0
-43 -191 0
-44 -194 0
-43 -193 0
-44 -195 0
-42 -194 0
-44 -196 0
-45 -198 0
-41 -199 0
-44 -198 0
-41 -197 0
-44 -197 0
-44 -199 0
-45 -224 0
-43 -224 0
-44 -223 0
-42 -222 0
-42 -223 0
-43 -221 0
-42 -224 0
-49 -58 0
-48 -56 0
-48 -59 0
-50 -60 0
-46 -58 0
-46 -60 0
-47 -60 0
-46 -80 0
-48 -79 0
-49 -76 0
-50 -77 0
-46 -79 0
-48 -80 0
-49 -80 0
-50 -113 0
-49 -114 0
-47 -114 0
-50 -111 0
-48 -115 0
-49 -113 0
-47 -112 0
-48 -148 0
-50 -147 0
-47 -146 0
-48 -147 0
-47 -147 0
-46 -148 0
-49 -146 0
-47 -155 0
-46 -154 0
-49 -155 0
-46 -155 0
-47 -151 0
-50 -151 0
-49 -152 0
-48 -194 0
-47 -191 0
-50 -193 0
-48 -192 0
-49 -191 0
-46 -194 0
-50 -192 0
-46 -220 0
-49 -218 0
-46 -219 0
-47 -219 0
-49 -217 0
-48 -220 0
-49 -219 0
-55 -82 0
-53 -81 0
-54 -85 0
-53 -84 0
-54 -84 0
-53 -85 0
-51 -81 0
-54 -98 0
-54 -97 0
-52 -99 0
-53 -96 0
-55 -97 0
-51 -98 0
-55 -100 0
-52 -140 0
-51 -138 0
-51 -140 0
-52 -137 0
-54 -138 0
-52 -138 0
-54 -139 0
-55 -154 0
-52 -153 0
-55 -153 0
-54 -154 0
-54 -153 0
-53 -153 0
-55 -152 0
-53 -161 0
-55 -163 0
-51 -161 0
-53 -162 0
-51 -164 0
-54 -163 0
-54 -161 0
-54 -180 0
-54 -179 0
-52 -177 0
-52 -180 0
-54 -177 0
-52 -178 0
-51 -176 0
-51 -182 0
-52 -182 0
-52 -183 0
-52 -184 0
-54 -183 0
-55 -185 0
-55 -184 0
-54 -187 0
-55 -188 0
-53 -188 0
-51 -190 0
-54 -186 0
-52 -186 0
-53 -186 0
-57 -82 0
-60 -81 0
-56 -84 0
-59 -84 0
-59 -82 0
-58 -85 0
-57 -81 0
-59 -87 0
-58 -87 0
-58 -90 0
-58 -86 0
-57 -87 0
-56 -90 0
-58 -88 0
-57 -109 0
-59 -107 0
-58 -110 0
-56 -109 0
-59 -110 0
-59 -108 0
-56 -106 0
-59 -112 0
-56 -112 0
-58 -114 0
-58 -115 0
-58 -111 0
-60 -113 0
-58 -112 0
-57 -118 0
-58 -120 0
-57 -116 0
-59 -116 0
-59 -118 0
-58 -116 0
-60 -118 0
-59 -167 0
-57 -167 0
-56 -169 0
-56 -166 0
-60 -170 0
-59 -168 0
-60 -166 0
-58 -172 0
-59 -174 0
-59 -171 0
-60 -173 0
-59 -172 0
-58 -174 0
-56 -174 0
-58 -205 0
-59 -205 0
-60 -204 0
-59 -202 0
-60 -205 0
-58 -204 0
-60 -201 0
-56 -220 0
-56 -218 0
-60 -220 0
-58 -217 0
-58 -218 0
-58 -219 0
-59 -216 0
-62 -73 0
-63 -75 0
-65 -74 0
-65 -72 0
-61 -75 0
-62 -75 0
-63 -74 0
-64 -78 0
-62 -79 0
-63 -77 0
-64 -77 0
-63 -79 0
-61 -76 0
-62 -76 0
-62 -95 0
-62 -91 0
-65 -94 0
-61 -93 0
-64 -95 0
-63 -92 0
-65 -95 0
-65 -140 0
-63 -138 0
-61 -136 0
-63 -137 0
-64 -137 0
-64 -139 0
-61 -140 0
-63 -150 0
-64 -148 0
-61 -149 0
-65 -150 0
-63 -147 0
-61 -146 0
-65 -149 0
-64 -162 0
-61 -163 0
-62 -161 0
-65 -163 0
-61 -164 0
-64 -161 0
-64 -163 0
-63 -168 0
-62 -167 0
-64 -168 0
-61 -166 0
-61 -169 0
-64 -167 0
-64 -170 0
-64 -202 0
-65 -205 0
-61 -204 0
-65 -202 0
-63 -201 0
-61 -203 0
-62 -203 0
-62 -211 0
-65 -212 0
-64 -212 0
-65 -215 0
-63 -214 0
-64 -211 0
-64 -214 0
-70 -75 0
-67 -72 0
-68 -75 0
-66 -75 0
-69 -72 0
-70 -71 0
-66 -72 0
-67 -98 0
-68 -97 0
-69 -96 0
-67 -97 0
-66 -100 0
-69 -97 0
-69 -99 0
-70 -103 0
-67 -105 0
-66 -103 0
-66 -104 0
-69 -105 0
-70 -101 0
-67 -104 0
-66 -112 0
-66 -111 0
-70 -111 0
-70 -114 0
-70 -115 0
-66 -113 0
-67 -111 0
-70 -122 0
-67 -122 0
-67 -123 0
-69 -124 0
-70 -125 0
-67 -125 0
-69 -122 0
-69 -140 0
-67 -139 0
-66 -137 0
-70 -137 0
-67 -138 0
-69 -137 0
-67 -137 0
-69 -142 0
-68 -145 0
-66 -145 0
-70 -144 0
-66 -144 0
-68 -144 0
-69 -144 0
-69 -154 0
-66 -155 0
-70 -152 0
-69 -155 0
-67 -153 0
-70 -155 0
-66 -151 0
-68 -168 0
-68 -169 0
-68 -166 0
-66 -167 0
-66 -170 0
-70 -167 0
-69 -166 0
-67 -182 0
-66 -183 0
-68 -185 0
-68 -181 0
-66 -184 0
-67 -184 0
-70 -185 0
-66 -205 0
-68 -205 0
-70 -204 0
-70 -203 0
-66 -204 0
-70 -205 0
-67 -204 0
-72 -124 0
-73 -121 0
-72 -122 0
-74 -123 0
-75 -124 0
-72 -121 0
-75 -125 0
-74 -129 0
-71 -128 0
-74 -126 0
-73 -127 0
-74 -127 0
-73 -129 0
-75 -129 0
-74 -140 0
-71 -139 0
-71 -137 0
-73 -138 0
-71 -140 0
-72 -136 0
-75 -136 0
-73 -147 0
-73 -148 0
-73 -146 0
-71 -149 0
-71 -150 0
-75 -146 0
-72 -147 0
-71 -166 0
-71 -170 0
-72 -170 0
-71 -168 0
-73 -167 0
-74 -169 0
-72 -166 0
-74 -211 0
-72 -214 0
-73 -211 0
-75 -211 0
-71 -214 0
-71 -212 0
-72 -211 0
-77 -100 0
-77 -97 0
-76 -97 0
-79 -97 0
-78 -97 0
-79 -96 0
-76 -100 0
-79 -129 0
-78 -127 0
-77 -127 0
-76 -127 0
-80 -126 0
-80 -130 0
-79 -128 0
-77 -132 0
-76 -133 0
-76 -132 0
-80 -135 0
-80 -132 0
-80 -134 0
-78 -135 0
-79 -144 0
-76 -145 0
-80 -143 0
-79 -145 0
-78 -144 0
-80 -144 0
-77 -142 0
-79 -170 0
-76 -169 0
-78 -170 0
-77 -169 0
-80 -170 0
-78 -168 0
-79 -168 0
-78 -184 0
-79 -181 0
-76 -183 0
-80 -185 0
-79 -183 0
-80 -184 0
-77 -182 0
-76 -190 0
-79 -186 0
-79 -190 0
-77 -186 0
-79 -189 0
-79 -187 0
-77 -189 0
-82 -90 0
-81 -87 0
-83 -88 0
-82 -86 0
-82 -89 0
-85 -88 0
-82 -88 0
-83 -122 0
-81 -125 0
-83 -124 0
-81 -124 0
-85 -121 0
-83 -121 0
-85 -123 0
-84 -128 0
-81 -129 0
-83 -130 0
-82 -127 0
-83 -128 0
-82 -130 0
-85 -128 0
-85 -147 0
-82 -150 0
-81 -146 0
-83 -147 0
-82 -146 0
-83 -148 0
-84 -146 0
-85 -181 0
-81 -181 0
-84 -184 0
-82 -182 0
-81 -183 0
-85 -185 0
-85 -184 0
-81 -202 0
-84 -201 0
-82 -205 0
-84 -202 0
-83 -204 0
-81 -205 0
-81 -201 0
-83 -224 0
-81 -223 0
-82 -221 0
-81 -221 0
-83 -223 0
-82 -222 0
-84 -225 0
-86 -94 0
-88 -95 0
-87 -93 0
-86 -93 0
-90 -94 0
-86 -92 0
-89 -92 0
-86 -157 0
-90 -159 0
-88 -156 0
-87 -157 0
-90 -158 0
-86 -160 0
-87 -159 0
-90 -162 0
-86 -163 0
-87 -164 0
-87 -161 0
-88 -161 0
-87 -165 0
-89 -163 0
-90 -169 0
-90 -168 0
-89 -169 0
-86 -166 0
-87 -167 0
-88 -167 0
-86 -168 0
-90 -179 0
-87 -180 0
-87 -179 0
-86 -178 0
-90 -180 0
-89 -176 0
-88 -180 0
-90 -186 0
-90 -187 0
-89 -189 0
-89 -188 0
-89 -190 0
-88 -189 0
-90 -188 0
-86 -203 0
-89 -201 0
-86 -205 0
-88 -201 0
-88 -203 0
-86 -201 0
-87 -201 0
-86 -218 0
-89 -217 0
-90 -219 0
-87 -218 0
-90 -220 0
-88 -219 0
-86 -220 0
-93 -120 0
-91 -117 0
-95 -118 0
-92 -116 0
-95 -119 0
-93 -119 0
-95 -116 0
-91 -124 0
-92 -125 0
-93 -122 0
-91 -121 0
-93 -123 0
-92 -122 0
-94 -123 0
-91 -127 0
-95 -129 0
-93 -130 0
-95 -128 0
-95 -130 0
-92 -127 0
-93 -128 0
-91 -153 0
-92 -154 0
-93 -153 0
-93 -152 0
-94 -154 0
-92 -151 0
-91 -152 0
-92 -170 0
-94 -167 0
-94 -169 0
-93 -170 0
-93 -168 0
-91 -169 0
-92 -169 0
-92 -171 0
-94 -175 0
-94 -172 0
-93 -172 0
-95 -171 0
-95 -174 0
-94 -173 0
-95 -178 0
-92 -177 0
-94 -177 0
-91 -177 0
-92 -179 0
-93 -178 0
-93 -180 0
-95 -203 0
-91 -203 0
-91 -201 0
-92 -201 0
-95 -205 0
-91 -202 0
-95 -204 0
-98 -116 0
-98 -119 0
-98 -118 0
-100 -120 0
-97 -119 0
-97 -120 0
-100 -117 0
-100 -129 0
-99 -128 0
-99 -126 0
-97 -130 0
-96 -126 0
-99 -127 0
-98 -130 0
-100 -137 0
-100 -136 0
-96 -140 0
-97 -138 0
-100 -139 0
-98 -136 0
-97 -139 0
-100 -144 0
-96 -144 0
-100 -141 0
-98 -141 0
-99 -144 0
-100 -142 0
-96 -142 0
-98 -159 0
-99 -160 0
-100 -156 0
-97 -156 0
-99 -157 0
-100 -159 0
-96 -156 0
-97 -164 0
-98 -164 0
-96 -162 0
-98 -163 0
-100 -164 0
-98 -161 0
-96 -161 0
-97 -166 0
-96 -170 0
-100 -168 0
-97 -168 0
-97 -167 0
-98 -169 0
-98 -170 0
-97 -183 0
-100 -184 0
-99 -181 0
-100 -185 0
-99 -184 0
-100 -181 0
-99 -182 0
-97 -200 0
-96 -199 0
-100 -196 0
-100 -198 0
-98 -196 0
-98 -198 0
-97 -198 0
-98 -214 0
-100 -213 0
-96 -215 0
-99 -213 0
-99 -214 0
-98 -212 0
-98 -213 0
-101 -115 0
-102 -112 0
-102 -115 0
-101 -111 0
-104 -113 0
-105 -112 0
-104 -115 0
-105 -121 0
-102 -123 0
-105 -122 0
-104 -125 0
-105 -123 0
-103 -123 0
-104 -121 0
-101 -147 0
-103 -150 0
-105 -150 0
-103 -148 0
-102 -150 0
-104 -150 0
-102 -148 0
-104 -158 0
-104 -160 0
-102 -160 0
-101 -157 0
-103 -158 0
-102 -159 0
-101 -156 0
-101 -172 0
-101 -173 0
-105 -174 0
-101 -174 0
-102 -173 0
-104 -171 0
-104 -172 0
-102 -194 0
-102 -191 0
-101 -191 0
-105 -192 0
-101 -195 0
-104 -191 0
-103 -195 0
-105 -202 0
-101 -205 0
-103 -204 0
-104 -205 0
-101 -203 0
-103 -201 0
-104 -203 0
-102 -208 0
-103 -207 0
-105 -208 0
-104 -209 0
-102 -210 0
-101 -207 0
-105 -209 0
-104 -219 0
-102 -216 0
-103 -219 0
-105 -218 0
-105 -219 0
-101 -216 0
-102 -220 0
-109 -123 0
-110 -125 0
-108 -121 0
-107 -125 0
-108 -123 0
-110 -121 0
-106 -125 0
-108 -131 0
-110 -134 0
-106 -135 0
-107 -135 0
-107 -132 0
-109 -132 0
-109 -135 0
-108 -168 0
-109 -166 0
-108 -166 0
-109 -170 0
-107 -170 0
-106 -170 0
-107 -169 0
-108 -185 0
-110 -185 0
-109 -182 0
-107 -182 0
-107 -185 0
-108 -184 0
-109 -185 0
-109 -204 0
-106 -201 0
-110 -203 0
-109 -201 0
-107 -205 0
-108 -204 0
-106 -203 0
-113 -126 0
-112 -128 0
-115 -127 0
-114 -126 0
-111 -130 0
-112 -129 0
-113 -128 0
-115 -167 0
-114 -169 0
-111 -166 0
-113 -167 0
-114 -167 0
-113 -170 0
-115 -166 0
-111 -187 0
-115 -187 0
-113 -186 0
-113 -190 0
-114 -186 0
-115 -189 0
-113 -188 0
-112 -194 0
-114 -193 0
-112 -192 0
-114 -195 0
-112 -191 0
-111 -193 0
-114 -194 0
-111 -200 0
-114 -198 0
-111 -199 0
-113 -198 0
-115 -199 0
-111 -196 0
-114 -199 0
-112 -204 0
-114 -204 0
-111 -204 0
-113 -203 0
-111 -201 0
-112 -203 0
-114 -202 0
-115 -210 0
-115 -206 0
-112 -208 0
-113 -206 0
-111 -206 0
-114 -210 0
-115 -208 0
-118 -131 0
-117 -131 0
-116 -132 0
-119 -135 0
-118 -133 0
-119 -133 0
-120 -131 0
-119 -140 0
-116 -138 0
-120 -137 0
-117 -137 0
-118 -140 0
-120 -138 0
-117 -136 0
-118 -142 0
-119 -143 0
-116 -143 0
-117 -144 0
-118 -144 0
-119 -144 0
-117 -141 0
-116 -155 0
-116 -153 0
-117 -155 0
-118 -155 0
-120 -152 0
-120 -154 0
-120 -151 0
-119 -168 0
-117 -168 0
-118 -167 0
-117 -167 0
-119 -166 0
-116 -166 0
-120 -166 0
-119 -180 0
-118 -180 0
-117 -180 0
-118 -179 0
-119 -176 0
-120 -179 0
-119 -179 0
-119 -198 0
-120 -199 0
-116 -200 0
-116 -197 0
-118 -200 0
-117 -200 0
-116 -199 0
-116 -207 0
-120 -206 0
-119 -207 0
-119 -210 0
-119 -206 0
-116 -208 0
-119 -209 0
-122 -131 0
-125 -132 0
-124 -131 0
-124 -133 0
-122 -135 0
-122 -134 0
-122 -133 0
-125 -145 0
-121 -142 0
-123 -143 0
-123 -141 0
-124 -145 0
-121 -145 0
-122 -142 0
-125 -161 0
-122 -161 0
-123 -164 0
-125 -163 0
-125 -164 0
-123 -165 0
-124 -163 0
-121 -198 0
-124 -197 0
-123 -200 0
-124 -199 0
-125 -198 0
-125 -196 0
-124 -198 0
-125 -215 0
-122 -212 0
-123 -211 0
-121 -211 0
-125 -213 0
-122 -211 0
-123 -214 0
-129 -134 0
-128 -133 0
-130 -135 0
-129 -132 0
-130 -134 0
-127 -135 0
-128 -131 0
-127 -160 0
-130 -159 0
-130 -158 0
-129 -156 0
-128 -160 0
-129 -158 0
-126 -158 0
-127 -175 0
-130 -172 0
-129 -174 0
-128 -172 0
-128 -174 0
-126 -171 0
-130 -171 0
-128 -178 0
-127 -178 0
-126 -180 0
-129 -177 0
-130 -179 0
-129 -178 0
-129 -180 0
-130 -202 0
-126 -203 0
-129 -202 0
-130 -201 0
-130 -204 0
-127 -202 0
-126 -205 0
-130 -210 0
-126 -209 0
-126 -210 0
-129 -208 0
-129 -209 0
-130 -206 0
-128 -207 0
-126 -211 0
-126 -213 0
-129 -215 0
-126 -215 0
-126 -212 0
-128 -214 0
-126 -214 0
-128 -216 0
-129 -219 0
-128 -220 0
-126 -217 0
-126 -218 0
-129 -220 0
-127 -219 0
-134 -136 0
-132 -139 0
-132 -140 0
-131 -138 0
-133 -140 0
-134 -140 0
-133 -138 0
-132 -163 0
-134 -162 0
-134 -163 0
-133 -164 0
-133 -161 0
-133 -163 0
-132 -162 0
-134 -182 0
-131 -185 0
-132 -182 0
-133 -185 0
-133 -181 0
-133 -182 0
-131 -184 0
-131 -202 0
-131 -204 0
-133 -204 0
-133 -201 0
-133 -202 0
-135 -202 0
-132 -202 0
-135 -214 0
-132 -214 0
-133 -211 0
-135 -212 0
-135 -213 0
-132 -215 0
-135 -215 0
-132 -220 0
-131 -216 0
-131 -219 0
-135 -219 0
-133 -220 0
-134 -217 0
-133 -216 0
-136 -150 0
-140 -150 0
-140 -146 0
-137 -149 0
-136 -147 0
-136 -148 0
-138 -149 0
-137 -152 0
-138 -153 0
-137 -153 0
-139 -151 0
-140 -153 0
-140 -154 0
-140 -151 0
-137 -176 0
-139 -180 0
-136 -177 0
-140 -180 0
-139 -178 0
-139 -176 0
-140 -177 0
-138 -195 0
-136 -195 0
-139 -194 0
-136 -194 0
-136 -192 0
-140 -195 0
-138 -191 0
-140 -207 0
-137 -208 0
-138 -208 0
-136 -207 0
-139 -207 0
-138 -206 0
-137 -209 0
-139 -219 0
-137 -216 0
-136 -219 0
-140 -220 0
-138 -216 0
-140 -216 0
-139 -217 0
-145 -149 0
-141 -148 0
-142 -148 0
-141 -147 0
-143 -150 0
-144 -147 0
-145 -146 0
-141 -211 0
-142 -215 0
-145 -212 0
-144 -214 0
-144 -211 0
-145 -214 0
-141 -215 0
-142 -219 0
-144 -217 0
-145 -218 0
-145 -219 0
-144 -216 0
-144 -219 0
-141 -216 0
-150 -196 0
-149 -200 0
-146 -200 0
-150 -197 0
-149 -196 0
-149 -199 0
-148 -196 0
-150 -204 0
-146 -204 0
-147 -205 0
-150 -205 0
-147 -201 0
-148 -203 0
-146 -201 0
-150 -224 0
-146 -223 0
-150 -222 0
-149 -223 0
-148 -222 0
-148 -224 0
-146 -221 0
-152 -201 0
-151 -205 0
-153 -205 0
-155 -205 0
-154 -203 0
-155 -204 0
-153 -203 0
-155 -206 0
-151 -210 0
-153 -210 0
-151 -206 0
-154 -206 0
-155 -210 0
-153 -209 0
-158 -178 0
-156 -177 0
-157 -178 0
-159 -177 0
-157 -179 0
-160 -180 0
-159 -178 0
-159 -192 0
-160 -192 0
-156 -195 0
-159 -191 0
-158 -191 0
-157 -193 0
-156 -191 0
-158 -208 0
-160 -207 0
-160 -208 0
-159 -207 0
-160 -210 0
-158 -206 0
-159 -208 0
-161 -190 0
-161 -189 0
-161 -188 0
-164 -188 0
-164 -189 0
-165 -187 0
-163 -187 0
-161 -191 0
-163 -192 0
-161 -192 0
-162 -195 0
-163 -191 0
-164 -193 0
-162 -193 0
-164 -202 0
-161 -203 0
-165 -204 0
-161 -205 0
-163 -202 0
-165 -201 0
-165 -203 0
-165 -209 0
-165 -207 0
-163 -207 0
-162 -209 0
-161 -206 0
-165 -206 0
-161 -208 0
-165 -224 0
-161 -223 0
-163 -222 0
-164 -225 0
-161 -225 0
-165 -223 0
-161 -224 0
-169 -205 0
-166 -204 0
-168 -205 0
-167 -201 0
-167 -203 0
-166 -205 0
-168 -204 0
-166 -215 0
-169 -212 0
-167 -212 0
-167 -211 0
-168 -215 0
-166 -213 0
-170 -214 0
-166 -217 0
-170 -219 0
-167 -219 0
-167 -217 0
-166 -219 0
-169 -218 0
-170 -218 0
-173 -177 0
-175 -180 0
-175 -176 0
-171 -180 0
-174 -177 0
-174 -178 0
-174 -179 0
-172 -195 0
-171 -195 0
-173 -195 0
-172 -192 0
-175 -193 0
-175 -191 0
-173 -191 0
-172 -199 0
-173 -200 0
-173 -199 0
-171 -197 0
-172 -200 0
-172 -198 0
-175 -196 0
-175 -220 0
-171 -216 0
-172 -218 0
-174 -220 0
-175 -218 0
-172 -220 0
-171 -217 0
-180 -194 0
-179 -194 0
-178 -191 0
-177 -194 0
-178 -194 0
-180 -191 0
-180 -195 0
-178 -198 0
-180 -198 0
-176 -198 0
-177 -197 0
-180 -199 0
-176 -199 0
-177 -199 0
-180 -210 0
-177 -209 0
-179 -208 0
-178 -208 0
-178 -206 0
-176 -207 0
-180 -208 0
-178 -215 0
-180 -212 0
-178 -213 0
-176 -212 0
-180 -213 0
-176 -214 0
-178 -214 0
-180 -221 0
-178 -221 0
-179 -225 0
-179 -222 0
-177 -224 0
-176 -222 0
-176 -221 0
-182 -204 0
-185 -205 0
-181 -203 0
-182 -205 0
-181 -205 0
-184 -201 0
-183 -201 0
-190 -202 0
-187 -204 0
-188 -204 0
-189 -201 0
-190 -201 0
-187 -202 0
-187 -201 0
-186 -210 0
-187 -207 0
-188 -207 0
-188 -210 0
-189 -207 0
-190 -207 0
-186 -208 0
-186 -211 0
-187 -212 0
-189 -215 0
-188 -213 0
-189 -213 0
-187 -211 0
-190 -213 0
-195 -198 0
-192 -199 0
-194 -200 0
-191 -196 0
-193 -197 0
-192 -197 0
-192 -198 0
-191 -203 0
-195 -204 0
-194 -201 0
-193 -204 0
-193 -205 0
-194 -203 0
-192 -205 0
-192 -206 0
-195 -209 0
-195 -207 0
-193 -210 0
-191 -208 0
-191 -207 0
-192 -207 0
-192 -213 0
-191 -213 0
-195 -214 0
-191 -212 0
-193 -215 0
-194 -215 0
-195 -215 0
-192 -219 0
-192 -218 0
-195 -218 0
-193 -219 0
-192 -220 0
-193 -218 0
-194 -218 0
-198 -212 0
-198 -211 0
-198 -214 0
-199 -211 0
-197 -213 0
-200 -211 0
-197 -212 0
-203 -210 0
-205 -208 0
-204 -207 0
-203 -209 0
-203 -207 0
-205 -207 0
-205 -210 0
-202 -212 0
-204 -215 0
-205 -215 0
-202 -215 0
-201 -211 0
-201 -213 0
-204 -211 0
-209 -220 0
-206 -217 0
-206 -218 0
-208 -218 0
-210 -219 0
-210 -217 0
-208 -216 0
-215 -217 0
-215 -218 0
-214 -219 0
-214 -217 0
-211 -217 0
-212 -218 0
-214 -218 0
